162119.02,53.8,66.72
173055.22,50.4,62.5
175110.48,49.81,61.77
168664.5,51.72,64.13
160978.75,54.18,67.19
187058.35,46.63,57.83
175264.3,49.77,61.72
156866.03,55.61,68.96
181062.09,48.18,59.74
175724.73,49.64,61.56
175371.63,49.74,61.68
169597.17,51.43,63.78
174828.62,49.89,61.87
164331.27,53.08,65.82
155799.38,55.99,69.43
164195.33,53.12,65.88
152190.49,57.31,71.07
165202.3,52.8,65.48
164632.23,52.98,65.7
153632.71,56.78,70.41
